nodes = 315;
edges = 660;
starts = [1, 2, 2, 3, 3, 3, 4, 4, 4, 5, 5, 6, 6, 6, 7, 7, 7, 8, 8, 8, 9, 9, 9, 10, 10, 10, 11, 11, 11, 12, 12, 13, 13, 13, 14, 14, 14, 15, 15, 16, 16, 16, 17, 17, 17, 18, 19, 19, 19, 20, 20, 21, 21, 21, 22, 23, 24, 24, 25, 25, 26, 26, 26, 27, 27, 28, 28, 28, 29, 30, 30, 31, 32, 32, 33, 33, 34, 34, 34, 34, 35, 35, 35, 35, 36, 36, 37, 38, 38, 38, 39, 39, 39, 40, 41, 41, 42, 42, 43, 44, 44, 45, 45, 45, 46, 46, 47, 47, 47, 48, 48, 48, 49, 50, 50, 50, 51, 52, 52, 53, 53, 53, 54, 55, 55, 55, 56, 56, 57, 57, 58, 59, 60, 60, 61, 62, 62, 62, 62, 63, 63, 63, 64, 64, 65, 65, 65, 66, 66, 67, 68, 68, 69, 69, 70, 70, 71, 71, 71, 71, 72, 73, 74, 74, 74, 75, 75, 75, 76, 76, 76, 77, 77, 78, 78, 79, 79, 79, 80, 81, 82, 83, 83, 84, 84, 85, 85, 85, 86, 86, 87, 88, 89, 90, 91, 92, 92, 93, 94, 94, 94, 95, 95, 96, 97, 97, 97, 98, 98, 99, 99, 100, 101, 102, 102, 103, 104, 104, 105, 105, 106, 106, 107, 107, 107, 108, 108, 108, 109, 109, 109, 110, 110, 111, 112, 112, 112, 113, 114, 114, 115, 115, 116, 117, 118, 118, 118, 119, 119, 119, 120, 121, 122, 122, 123, 123, 124, 124, 125, 126, 127, 127, 128, 128, 128, 129, 129, 129, 130, 131, 131, 131, 132, 132, 132, 133, 133, 134, 134, 134, 135, 136, 136, 137, 137, 138, 139, 139, 139, 139, 140, 140, 140, 141, 141, 141, 142, 143, 143, 143, 144, 144, 145, 145, 145, 146, 147, 147, 147, 147, 148, 148, 148, 149, 149, 150, 150, 150, 151, 151, 152, 152, 153, 153, 154, 155, 156, 157, 158, 158, 159, 160, 160, 161, 161, 161, 162, 163, 163, 163, 163, 164, 164, 165, 166, 166, 166, 167, 168, 169, 169, 169, 170, 170, 170, 171, 172, 173, 173, 174, 174, 174, 175, 175, 175, 176, 177, 177, 178, 178, 179, 179, 180, 180, 181, 181, 182, 182, 182, 183, 183, 184, 184, 184, 184, 185, 186, 186, 186, 187, 188, 188, 188, 189, 189, 190, 191, 192, 192, 193, 194, 194, 194, 195, 195, 195, 196, 196, 197, 198, 198, 198, 199, 199, 200, 200, 201, 201, 202, 202, 203, 203, 204, 205, 205, 205, 206, 206, 207, 207, 207, 208, 209, 210, 210, 210, 211, 211, 212, 213, 213, 214, 214, 214, 215, 215, 215, 216, 217, 217, 218, 218, 219, 220, 221, 221, 222, 222, 223, 223, 223, 224, 224, 224, 224, 225, 226, 227, 227, 228, 228, 229, 229, 229, 230, 230, 230, 231, 231, 232, 232, 232, 233, 233, 233, 234, 234, 234, 235, 235, 236, 236, 236, 237, 237, 238, 238, 239, 239, 240, 241, 241, 241, 242, 242, 242, 243, 243, 244, 244, 245, 245, 246, 246, 247, 248, 248, 249, 250, 250, 251, 252, 253, 253, 254, 254, 254, 255, 256, 256, 256, 257, 257, 257, 257, 258, 258, 258, 259, 260, 260, 261, 261, 262, 263, 263, 264, 264, 265, 266, 267, 268, 268, 269, 269, 269, 270, 270, 270, 271, 271, 271, 272, 272, 272, 273, 273, 273, 274, 274, 274, 275, 275, 276, 276, 277, 277, 278, 278, 278, 279, 279, 279, 280, 280, 280, 281, 282, 282, 282, 283, 283, 284, 284, 285, 285, 285, 285, 286, 287, 287, 288, 288, 289, 290, 291, 291, 292, 292, 293, 293, 293, 294, 294, 295, 296, 296, 296, 297, 297, 297, 297, 298, 299, 300, 300, 301, 301, 302, 303, 303, 303, 304, 305, 305, 305, 306, 306, 306, 307, 308, 308, 309, 309, 309, 310, 310, 310, 311, 311, 312, 312, 312, 313, 313, 314, 314, 315, 315, 315];
ends = [79, 3, 96, 97, 149, 199, 5, 55, 170, 4, 53, 77, 93, 290, 9, 74, 236, 47, 74, 236, 7, 74, 129, 19, 78, 131, 76, 150, 285, 15, 75, 143, 163, 215, 17, 212, 220, 12, 150, 89, 92, 245, 14, 207, 270, 238, 10, 107, 310, 25, 139, 140, 224, 241, 285, 313, 39, 311, 20, 147, 71, 194, 312, 175, 232, 99, 153, 173, 306, 99, 153, 80, 32, 313, 211, 306, 86, 94, 161, 205, 39, 143, 215, 257, 38, 287, 72, 36, 271, 277, 24, 35, 163, 208, 30, 54, 22, 160, 174, 133, 282, 94, 112, 205, 232, 305, 8, 60, 138, 104, 143, 191, 300, 130, 188, 213, 122, 174, 209, 5, 55, 257, 41, 4, 53, 256, 175, 207, 58, 295, 57, 60, 47, 59, 102, 90, 118, 267, 297, 184, 310, 315, 172, 286, 184, 296, 315, 68, 124, 272, 183, 228, 70, 189, 33, 69, 26, 140, 293, 297, 209, 248, 8, 9, 138, 12, 238, 308, 11, 141, 150, 6, 177, 10, 134, 1, 243, 258, 159, 186, 83, 82, 272, 37, 182, 145, 161, 285, 34, 141, 239, 118, 203, 62, 297, 16, 181, 6, 34, 45, 169, 197, 293, 200, 3, 96, 179, 282, 302, 30, 54, 244, 105, 237, 288, 110, 48, 214, 103, 289, 84, 126, 19, 296, 315, 153, 199, 243, 229, 230, 303, 111, 249, 113, 45, 169, 170, 117, 101, 289, 101, 284, 134, 115, 62, 88, 182, 146, 163, 176, 194, 151, 193, 298, 174, 263, 158, 165, 241, 127, 49, 260, 129, 236, 309, 7, 9, 128, 50, 10, 134, 296, 186, 229, 230, 44, 179, 78, 116, 131, 234, 144, 227, 98, 136, 47, 20, 147, 279, 280, 21, 71, 224, 76, 86, 308, 66, 13, 35, 48, 227, 239, 85, 161, 205, 119, 25, 139, 166, 280, 149, 219, 221, 3, 148, 11, 15, 76, 51, 264, 100, 244, 28, 108, 198, 195, 188, 192, 206, 262, 164, 183, 228, 34, 85, 145, 42, 13, 39, 119, 215, 31, 235, 67, 147, 280, 312, 175, 210, 94, 112, 254, 4, 112, 254, 257, 95, 28, 244, 43, 52, 123, 27, 56, 167, 119, 178, 180, 180, 274, 97, 133, 92, 181, 73, 248, 84, 118, 279, 66, 142, 63, 65, 278, 288, 232, 81, 132, 226, 230, 70, 156, 189, 188, 213, 61, 48, 57, 121, 283, 26, 120, 241, 50, 155, 196, 195, 201, 2, 154, 195, 201, 97, 108, 172, 286, 198, 202, 234, 247, 245, 274, 206, 34, 45, 145, 68, 124, 17, 56, 210, 265, 52, 168, 207, 242, 33, 69, 14, 50, 196, 104, 157, 299, 13, 35, 163, 222, 193, 298, 282, 302, 148, 14, 148, 222, 216, 221, 197, 258, 293, 21, 140, 281, 307, 273, 186, 304, 314, 162, 190, 109, 132, 305, 109, 132, 187, 211, 306, 27, 46, 185, 237, 288, 309, 135, 198, 202, 231, 276, 7, 8, 128, 31, 235, 18, 75, 87, 144, 303, 21, 125, 194, 210, 250, 303, 79, 173, 152, 173, 16, 274, 121, 295, 268, 6, 177, 203, 253, 292, 273, 305, 77, 290, 169, 170, 256, 106, 55, 254, 257, 35, 53, 171, 256, 79, 223, 269, 269, 32, 291, 49, 260, 204, 40, 265, 51, 312, 126, 297, 62, 246, 279, 258, 259, 270, 17, 269, 271, 38, 270, 273, 83, 304, 314, 225, 251, 271, 111, 178, 203, 242, 250, 102, 162, 38, 287, 184, 309, 310, 139, 182, 268, 139, 147, 166, 224, 44, 98, 136, 157, 214, 253, 292, 11, 22, 85, 160, 218, 36, 277, 184, 233, 301, 275, 114, 284, 261, 291, 71, 223, 255, 234, 247, 294, 65, 107, 131, 62, 71, 91, 266, 64, 214, 223, 255, 103, 313, 217, 109, 240, 242, 272, 46, 229, 252, 29, 231, 276, 224, 75, 141, 128, 233, 278, 19, 63, 278, 24, 137, 26, 166, 264, 23, 301, 137, 311, 63, 65, 107];
weights = [50, 70, 11, 11, 110, 82, 62, 110, 88, 62, 111, 13, 238, 58, 109, 83, 18, 189, 18, 84, 109, 173, 213, 63, 67, 97, 122, 30, 97, 113, 17, 68, 203, 112, 45, 10, 10, 113, 28, 96, 493, 84, 45, 106, 87, 28, 63, 104, 66, 89, 75, 65, 137, 66, 6, 62, 184, 288, 89, 75, 173, 83, 37, 77, 64, 38, 10, 4, 142, 9, 38, 18, 224, 221, 8, 321, 28, 56, 57, 134, 42, 180, 19, 31, 81, 32, 65, 81, 56, 78, 184, 42, 15, 55, 13, 13, 217, 34, 34, 19, 51, 133, 55, 56, 80, 66, 189, 35, 74, 118, 151, 55, 18, 7, 138, 7, 5, 258, 28, 111, 60, 41, 13, 110, 60, 42, 66, 36, 7, 110, 7, 49, 35, 49, 559, 59, 144, 66, 120, 77, 110, 19, 133, 31, 121, 107, 31, 12, 356, 277, 12, 402, 11, 119, 122, 11, 173, 32, 124, 69, 268, 81, 18, 173, 123, 17, 29, 32, 122, 16, 146, 13, 79, 67, 87, 50, 273, 254, 21, 78, 13, 13, 96, 9, 182, 193, 57, 35, 28, 30, 5, 60, 174, 59, 55, 493, 39, 238, 56, 133, 57, 19, 392, 17, 11, 68, 359, 10, 228, 9, 12, 47, 12, 10, 87, 12, 118, 250, 15, 42, 177, 72, 104, 22, 58, 151, 3, 26, 36, 63, 32, 9, 53, 12, 55, 133, 60, 10, 47, 91, 14, 119, 88, 10, 144, 60, 63, 55, 41, 33, 65, 5, 17, 491, 27, 340, 13, 39, 108, 5, 52, 143, 9, 86, 97, 85, 213, 9, 7, 97, 75, 52, 21, 64, 35, 19, 76, 87, 88, 75, 7, 67, 10, 319, 11, 74, 75, 90, 58, 161, 65, 32, 72, 16, 30, 29, 55, 68, 180, 151, 68, 66, 193, 134, 56, 55, 75, 90, 91, 73, 25, 44, 31, 110, 25, 30, 28, 146, 14, 66, 48, 10, 10, 151, 6, 6, 7, 6, 15, 29, 19, 382, 78, 57, 57, 134, 53, 203, 15, 41, 42, 21, 646, 329, 91, 164, 107, 105, 49, 57, 133, 57, 88, 60, 133, 60, 4, 4, 102, 34, 258, 27, 77, 66, 105, 33, 12, 8, 11, 423, 359, 76, 39, 6, 70, 9, 182, 63, 255, 10, 60, 77, 121, 121, 18, 110, 78, 21, 60, 48, 119, 7, 7, 7, 138, 9, 55, 219, 14, 5, 83, 65, 54, 81, 6, 8, 8, 84, 21, 6, 84, 8, 82, 3, 32, 132, 8, 153, 7, 306, 11, 3, 89, 134, 56, 56, 354, 13, 106, 36, 104, 12, 28, 49, 104, 552, 8, 121, 10, 7, 81, 250, 34, 137, 112, 19, 42, 31, 490, 13, 234, 19, 44, 10, 31, 31, 31, 31, 391, 206, 13, 137, 72, 36, 65, 58, 60, 181, 11, 63, 147, 36, 64, 112, 63, 35, 48, 321, 8, 64, 80, 110, 88, 12, 140, 7, 153, 7, 112, 9, 18, 84, 86, 641, 20, 28, 29, 5, 66, 137, 66, 108, 54, 552, 90, 172, 273, 204, 10, 102, 84, 12, 330, 13, 13, 78, 7, 15, 12, 424, 61, 108, 58, 10, 57, 133, 47, 13, 42, 47, 59, 31, 41, 60, 59, 254, 206, 131, 87, 100, 319, 155, 17, 81, 10, 74, 64, 42, 97, 66, 66, 15, 261, 131, 87, 17, 87, 17, 135, 56, 135, 151, 96, 11, 176, 58, 61, 151, 68, 423, 3, 90, 11, 20, 710, 78, 126, 121, 283, 68, 58, 255, 261, 161, 73, 164, 36, 51, 10, 323, 13, 34, 423, 16, 97, 6, 35, 215, 6, 32, 126, 18, 12, 36, 12, 72, 10, 318, 17, 124, 13, 249, 294, 14, 30, 107, 22, 52, 120, 69, 55, 66, 8, 137, 233, 58, 90, 38, 29, 32, 137, 172, 11, 66, 112, 108, 142, 8, 105, 65, 32, 29, 97, 140, 283, 66, 110, 68, 288, 90, 37, 107, 42, 62, 38, 11, 92, 19, 31, 58];
start = 276;
end= 105;
p = [0, 0, 0, 0, 0, 0, 0, 0, 0, 0, 0, 0, 0, 0, 0, 0, 0, 0, 0, 0, 0, 0, 0, 0, 0, 0, 0, 0, 0, 0, 0, 0, 0, 0, 0, 0, 0, 0, 0, 1, 0, 0, 0, 0, 0, 0, 0, 0, 0, 0, 0, 0, 0, 0, 0, 0, 0, 1, 0, 0, 0, 0, 0, 0, 0, 0, 0, 0, 0, 0, 0, 0, 0, 0, 0, 0, 0, 0, 1, 0, 0, 0, 0, 0, 0, 0, 0, 0, 0, 0, 0, 0, 0, 0, 0, 0, 0, 0, 0, 0, 0, 0, 0, 1, 0, 0, 0, 0, 0, 0, 0, 0, 0, 0, 0, 0, 0, 0, 0, 0, 0, 0, 0, 1, 0, 0, 0, 0, 0, 0, 0, 0, 0, 0, 0, 0, 1, 0, 0, 0, 0, 0, 0, 0, 0, 0, 0, 0, 0, 0, 0, 0, 0, 0, 0, 0, 0, 0, 0, 1, 0, 0, 0, 0, 0, 0, 0, 0, 0, 0, 0, 0, 0, 0, 0, 0, 0, 0, 0, 0, 0, 0, 0, 0, 0, 0, 1, 0, 0, 0, 0, 0, 0, 0, 0, 0, 0, 0, 0, 0, 1, 0, 1, 0, 0, 0, 0, 0, 0, 0, 0, 0, 0, 0, 0, 0, 0, 0, 0, 0, 0, 0, 1, 0, 0, 0, 1, 0, 0, 0, 0, 0, 0, 0, 0, 0, 0, 0, 0, 0, 0, 0, 0, 0, 0, 0, 0, 0, 0, 0, 0, 0, 0, 0, 0, 0, 0, 0, 0, 0, 0, 0, 0, 0, 0, 0, 0, 0, 0, 0, 0, 0, 0, 0, 0, 0, 0, 0, 0, 0, 0, 0, 0, 0, 0, 0, 0, 0, 0, 0, 0, 0, 0, 0, 0, 0, 0, 0, 0, 0, 0, 0, 0, 0, 0, 0, 0, 0, 0, 0, 0, 0, 0, 0, 0];
